NAME : local_4
TYPE : ATSP
DIMENSION : 27
EDGE_WEIGHT_TYPE : EXPLICIT
EDGE_WEIGHT_FORMAT : FULL_MATRIX
EDGE_WEIGHT_SECTION
0 970 696 718 10000000 761 630 680 1132 10000000 968 1027 908 10000000 603 10000000 10000000 10000000 757 10000000 604 10000000 867 658 562 557 0 
0 0 10000000 10000000 10000000 10000000 10000000 10000000 437 371 262 864 698 811 10000000 814 10000000 719 566 10000000 10000000 479 10000000 10000000 10000000 10000000 1028 
0 10000000 0 10000000 10000000 10000000 10000000 792 10000000 10000000 10000000 10000000 10000000 10000000 816 10000000 10000000 10000000 10000000 10000000 10000000 10000000 228 516 562 809 696 
0 10000000 10000000 0 10000000 187 317 644 10000000 10000000 10000000 10000000 10000000 10000000 575 10000000 10000000 10000000 10000000 10000000 275 10000000 10000000 937 846 531 718 
0 10000000 10000000 10000000 0 10000000 10000000 10000000 813 10000000 963 504 782 10000000 10000000 565 195 709 689 171 10000000 10000000 10000000 10000000 10000000 10000000 10000000 
0 10000000 10000000 187 10000000 0 218 606 10000000 10000000 10000000 10000000 10000000 10000000 519 10000000 10000000 10000000 10000000 10000000 441 10000000 10000000 894 799 492 761 
0 10000000 10000000 317 10000000 218 0 416 10000000 10000000 10000000 10000000 10000000 10000000 311 10000000 10000000 10000000 10000000 10000000 503 10000000 10000000 678 582 286 630 
0 10000000 792 644 10000000 606 416 0 10000000 10000000 10000000 10000000 10000000 10000000 135 10000000 10000000 10000000 10000000 10000000 760 10000000 822 366 342 163 680 
0 437 10000000 10000000 813 10000000 10000000 10000000 0 489 203 619 615 656 10000000 377 966 300 370 686 10000000 378 10000000 10000000 10000000 10000000 1050 
0 371 10000000 10000000 10000000 10000000 10000000 10000000 489 0 430 10000000 994 490 10000000 784 10000000 646 787 10000000 10000000 219 10000000 10000000 10000000 10000000 10000000 
0 262 10000000 10000000 963 10000000 10000000 10000000 203 430 0 668 580 722 10000000 574 10000000 497 402 817 10000000 403 10000000 10000000 10000000 10000000 968 
0 864 10000000 10000000 504 10000000 10000000 10000000 619 10000000 668 0 293 10000000 10000000 640 595 722 344 345 10000000 995 10000000 10000000 10000000 10000000 1054 
0 698 10000000 10000000 782 10000000 10000000 10000000 615 994 580 293 0 10000000 10000000 788 886 821 288 625 10000000 966 10000000 10000000 10000000 10000000 905 
0 811 10000000 10000000 10000000 10000000 10000000 10000000 656 490 722 10000000 10000000 0 10000000 720 10000000 585 10000000 10000000 10000000 339 10000000 10000000 10000000 10000000 10000000 
0 10000000 816 575 10000000 519 311 135 10000000 10000000 10000000 10000000 10000000 10000000 0 10000000 10000000 10000000 10000000 10000000 696 10000000 859 385 316 62 603 
0 814 10000000 10000000 565 10000000 10000000 10000000 377 784 574 640 788 720 10000000 0 716 148 546 500 10000000 600 10000000 10000000 10000000 10000000 10000000 
0 10000000 10000000 10000000 195 10000000 10000000 10000000 966 10000000 10000000 595 886 10000000 10000000 716 0 862 839 298 10000000 10000000 10000000 10000000 10000000 10000000 10000000 
0 719 10000000 10000000 709 10000000 10000000 10000000 300 646 497 722 821 585 10000000 148 862 0 562 633 10000000 456 10000000 10000000 10000000 10000000 10000000 
0 566 10000000 10000000 689 10000000 10000000 10000000 370 787 402 344 288 10000000 10000000 546 839 562 0 543 10000000 734 10000000 10000000 10000000 10000000 757 
0 10000000 10000000 10000000 171 10000000 10000000 10000000 686 10000000 817 345 625 10000000 10000000 500 298 633 543 0 10000000 10000000 10000000 10000000 10000000 10000000 10000000 
0 10000000 10000000 275 10000000 441 503 760 10000000 10000000 10000000 10000000 10000000 10000000 696 10000000 10000000 10000000 10000000 10000000 0 10000000 10000000 996 903 638 604 
0 479 10000000 10000000 10000000 10000000 10000000 10000000 378 219 403 995 966 339 10000000 600 10000000 456 734 10000000 10000000 0 10000000 10000000 10000000 10000000 10000000 
0 10000000 228 10000000 10000000 10000000 10000000 822 10000000 10000000 10000000 10000000 10000000 10000000 859 10000000 10000000 10000000 10000000 10000000 10000000 10000000 0 496 578 869 867 
0 10000000 516 937 10000000 894 678 366 10000000 10000000 10000000 10000000 10000000 10000000 385 10000000 10000000 10000000 10000000 10000000 996 10000000 496 0 126 411 658 
0 10000000 562 846 10000000 799 582 342 10000000 10000000 10000000 10000000 10000000 10000000 316 10000000 10000000 10000000 10000000 10000000 903 10000000 578 126 0 336 562 
0 10000000 809 531 10000000 492 286 163 10000000 10000000 10000000 10000000 10000000 10000000 62 10000000 10000000 10000000 10000000 10000000 638 10000000 869 411 336 0 557 
0 10000000 10000000 10000000 10000000 10000000 10000000 10000000 10000000 10000000 10000000 10000000 10000000 10000000 10000000 10000000 10000000 10000000 10000000 10000000 10000000 10000000 10000000 10000000 10000000 10000000 0 
EOF